15 200
0 250 250 0 0 1925 0 -1 -1
0 332 459 35 0 1925 10 0 0
1 206 174 -35 0 1925 10 1 0
2 226 423 15 0 1925 10 0 1
3 125 65 17 0 1925 10 0 1
4 197 202 29 0 1925 0 0 1
5 396 83 -61 0 1925 10 1 1
6 366 334 5 0 1925 10 0 2
7 482 184 14 0 1925 10 0 2
8 153 235 10 0 1925 10 0 2
9 437 19 -29 0 1925 10 1 2
10 297 304 4 0 1925 10 0 3
11 137 377 23 0 1925 10 0 3
12 80 117 24 0 1925 10 0 3
13 286 244 -51 0 1925 10 1 3
14 417 212 12 0 1925 10 0 4
15 345 431 12 0 1925 10 0 4
16 318 99 -24 0 1925 10 1 4
17 460 117 14 0 1925 10 0 5
18 175 239 23 0 1925 10 0 5
19 94 40 24 0 1925 10 0 5
20 415 118 -61 0 1925 10 1 5
21 48 412 7 0 1925 10 0 6
22 235 13 27 0 1925 10 0 6
23 157 269 -34 0 1925 10 1 6
24 52 303 25 0 1925 10 0 7
25 368 452 16 0 1925 10 0 7
26 172 24 -41 0 1925 10 1 7
